(set-option :produce-models true)
(declare-const x_size0 Int)
(declare-const x_size1 Int)
(declare-const x_size2 Int)
(declare-const x_stride0 Int)
(declare-const x_stride1 Int)
(declare-const x_stride2 Int)
(declare-const x_storage_offset Int)
(define-fun ge () Bool (>= x_size0 0))
(assert ge)
(define-fun ge_1 () Bool (>= x_size1 0))
(assert ge_1)
(define-fun ge_2 () Bool (>= x_size2 0))
(assert ge_2)
(define-fun eq () Bool (= x_size0 0))
(define-fun not_ () Bool (not eq))
(assert not_)
(define-fun sub () Int (- x_size0 1))
(define-fun mul () Int (* x_stride0 sub))
(define-fun add () Int (+ 1 mul))
(define-fun eq_1 () Bool (= x_size1 0))
(define-fun not__1 () Bool (not eq_1))
(assert not__1)
(define-fun sub_1 () Int (- x_size1 1))
(define-fun mul_1 () Int (* x_stride1 sub_1))
(define-fun add_1 () Int (+ add mul_1))
(define-fun eq_2 () Bool (= x_size2 0))
(define-fun not__2 () Bool (not eq_2))
(assert not__2)
(define-fun sub_2 () Int (- x_size2 1))
(define-fun mul_2 () Int (* x_stride2 sub_2))
(define-fun add_2 () Int (+ add_1 mul_2))
(define-fun mul_3 () Int (* 4 add_2))
(define-fun mul_4 () Int (* x_size0 x_size1))
(define-fun mul_5 () Int (* mul_4 x_size2))
(define-fun eq_3 () Bool (= mul_5 0))
(define-fun not__3 () Bool (not eq_3))
(assert not__3)
(define-fun eq_4 () Bool (= x_size2 1))
(define-fun not__4 () Bool (not eq_4))
(assert not__4)
(define-fun eq_5 () Bool (= x_stride2 1))
(assert eq_5)
(define-fun eq_6 () Bool (= x_size1 1))
(define-fun not__5 () Bool (not eq_6))
(assert not__5)
(define-fun eq_7 () Bool (= x_stride1 x_size2))
(assert eq_7)
(define-fun mul_6 () Int (* x_size2 x_size1))
(define-fun eq_8 () Bool (= x_size0 1))
(define-fun not__6 () Bool (not eq_8))
(assert not__6)
(define-fun eq_9 () Bool (= x_stride0 mul_6))
(assert eq_9)
(define-fun mul_7 () Int (* mul_6 x_size0))
(define-fun eq_10 () Bool (= x_size0 x_size0))
(assert eq_10)
(define-fun eq_11 () Bool (= x_size1 x_size1))
(assert eq_11)
(define-fun eq_12 () Bool (= x_size2 x_size2))
(assert eq_12)
(define-fun eq_13 () Bool (= x_stride2 0))
(define-fun not__7 () Bool (not eq_13))
(assert not__7)
(define-fun eq_14 () Bool (= x_stride1 0))
(define-fun not__8 () Bool (not eq_14))
(assert not__8)
(define-fun lt () Bool (< x_stride2 x_stride1))
(assert lt)
(define-fun eq_15 () Bool (= x_stride0 0))
(define-fun not__9 () Bool (not eq_15))
(assert not__9)
(define-fun lt_1 () Bool (< x_stride1 x_stride0))
(assert lt_1)
(define-fun mul_8 () Int (* mul_6 sub))
(define-fun add_3 () Int (+ 1 mul_8))
(define-fun mul_9 () Int (* x_size2 sub_1))
(define-fun add_4 () Int (+ add_3 mul_9))
(define-fun add_5 () Int (+ add_4 sub_2))
(define-fun mul_10 () Int (* 4 add_5))
(define-fun eq_16 () Bool (= mul_6 mul_6))
(assert eq_16)
(define-fun ge_3 () Bool (>= x_storage_offset 0))
(assert ge_3)
(define-fun add_6 () Int (+ x_storage_offset add_2))
(define-fun mul_11 () Int (* 4 add_6))
(define-fun eq_17 () Bool (= x_size2 768))
(assert eq_17)
(define-fun mul_12 () Int (* x_size1 x_size0))
(define-fun mul_13 () Int (* x_size1 sub))
(define-fun add_7 () Int (+ 1 mul_13))
(define-fun add_8 () Int (+ add_7 sub_1))
(define-fun mul_14 () Int (* 4 add_8))
(define-fun eq_18 () Bool (= mul_4 0))
(define-fun not__10 () Bool (not eq_18))
(assert not__10)
(define-fun sym_float () Real (to_real x_size2))
(define-fun lt_2 () Bool (< x_size1 0))
(define-fun not__11 () Bool (not lt_2))
(assert not__11)
(define-fun lt_3 () Bool (< x_size0 0))
(define-fun not__12 () Bool (not lt_3))
(assert not__12)
(define-fun lt_4 () Bool (< x_size1 1))
(define-fun not__13 () Bool (not lt_4))
(assert not__13)
(define-fun gt () Bool (> x_size1 1))
(assert gt)
(define-fun lt_5 () Bool (< x_size2 0))
(define-fun not__14 () Bool (not lt_5))
(assert not__14)
(define-fun eq_19 () Bool (= x_size0 -1))
(define-fun not__15 () Bool (not eq_19))
(assert not__15)
(define-fun eq_20 () Bool (= x_size1 -1))
(define-fun not__16 () Bool (not eq_20))
(assert not__16)
(define-fun eq_21 () Bool (= x_size2 -1))
(define-fun not__17 () Bool (not eq_21))
(assert not__17)
(define-fun lt_6 () Bool (< x_size1 2))
(define-fun not__18 () Bool (not lt_6))
(assert not__18)
(define-fun lt_7 () Bool (< x_size0 2))
(define-fun not__19 () Bool (not lt_7))
(assert not__19)
(define-fun lt_8 () Bool (< 1 x_size1))
(assert lt_8)
(define-fun lt_9 () Bool (< x_size2 2))
(define-fun not__20 () Bool (not lt_9))
(assert not__20)
(define-fun gt_1 () Bool (> x_size2 1))
(assert gt_1)
(define-fun eq_22 () Bool (= mul_6 0))
(define-fun not__21 () Bool (not eq_22))
(assert not__21)
(define-fun lt_10 () Bool (< x_size2 mul_6))
(assert lt_10)
(define-fun eq_23 () Bool (= 0 x_size2))
(define-fun not__22 () Bool (not eq_23))
(assert not__22)
(define-fun eq_24 () Bool (= mul_4 -1))
(define-fun not__23 () Bool (not eq_24))
(assert not__23)
(define-fun ge_4 () Bool (>= mul_4 0))
(assert ge_4)
(define-fun eq_25 () Bool (= mul_5 mul_5))
(assert eq_25)
(define-fun lt_11 () Bool (< 1 mul_7))
(assert lt_11)
(define-fun lt_12 () Bool (< x_size2 mul_7))
(assert lt_12)
(define-fun mul_15 () Int (* x_size2 mul_4))
(define-fun eq_26 () Bool (= mul_15 mul_7))
(assert eq_26)
(define-fun eq_27 () Bool (= x_size0 mul_4))
(define-fun not__24 () Bool (not eq_27))
(assert not__24)
(define-fun eq_28 () Bool (= mul_4 x_size0))
(define-fun not__25 () Bool (not eq_28))
(assert not__25)
(define-fun mod () Int (mod x_size0 mul_4))
(define-fun eq_29 () Bool (= mod 0))
(define-fun not__26 () Bool (not eq_29))
(assert not__26)
(define-fun mod_1 () Int (mod mul_4 mul_4))
(define-fun eq_30 () Bool (= mod_1 0))
(assert eq_30)
(define-fun lt_13 () Bool (< mul_6 x_size2))
(define-fun not__27 () Bool (not lt_13))
(assert not__27)
(define-fun gt_2 () Bool (> mul_5 0))
(assert gt_2)
(define-fun mul_16 () Int (* mul_12 x_size2))
(define-fun eq_31 () Bool (= mul_16 0))
(define-fun not__28 () Bool (not eq_31))
(assert not__28)
(define-fun eq_32 () Bool (= mul_12 1))
(define-fun not__29 () Bool (not eq_32))
(assert not__29)
(define-fun mul_17 () Int (* x_size2 mul_12))
(define-fun eq_33 () Bool (= mul_4 mul_4))
(assert eq_33)
(define-fun ge_5 () Bool (>= mul_12 0))
(assert ge_5)
(define-fun eq_34 () Bool (= mul_12 0))
(define-fun not__30 () Bool (not eq_34))
(assert not__30)
(define-fun mul_18 () Int (* 2304 mul_12))
(define-fun sub_3 () Int (- mul_12 1))
(define-fun mul_19 () Int (* 2304 sub_3))
(define-fun add_9 () Int (+ 1 mul_19))
(define-fun add_10 () Int (+ add_9 2303))
(define-fun mul_20 () Int (* 4 add_10))
(define-fun mul_21 () Int (* mul_12 2304))
(define-fun eq_35 () Bool (= mul_21 0))
(define-fun not__31 () Bool (not eq_35))
(assert not__31)
(define-fun mul_22 () Int (* mul_4 2304))
(define-fun eq_36 () Bool (= mul_21 mul_22))
(assert eq_36)
(define-fun eq_37 () Bool (= mul_12 x_size0))
(define-fun not__32 () Bool (not eq_37))
(assert not__32)
(define-fun eq_38 () Bool (= x_size0 mul_12))
(define-fun not__33 () Bool (not eq_38))
(assert not__33)
(define-fun mod_2 () Int (mod mul_12 x_size0))
(define-fun eq_39 () Bool (= mod_2 0))
(assert eq_39)
(define-fun floordiv () Int (div mul_12 x_size0))
(define-fun mul_23 () Int (* 2304 floordiv))
(define-fun mul_24 () Int (* x_size0 floordiv))
(define-fun mul_25 () Int (* mul_24 2304))
(define-fun eq_40 () Bool (= mul_25 0))
(define-fun not__34 () Bool (not eq_40))
(assert not__34)
(define-fun eq_41 () Bool (= floordiv 1))
(define-fun not__35 () Bool (not eq_41))
(assert not__35)
(define-fun eq_42 () Bool (= mul_23 mul_23))
(assert eq_42)
(define-fun mul_26 () Int (* mul_23 x_size0))
(define-fun eq_43 () Bool (= x_size1 floordiv))
(assert eq_43)
(define-fun floordiv_1 () Int (div x_size2 16))
(define-fun mul_27 () Int (* mul_4 3))
(define-fun mul_28 () Int (* mul_27 16))
(define-fun eq_44 () Bool (= floordiv_1 -1))
(define-fun not__36 () Bool (not eq_44))
(assert not__36)
(define-fun ge_6 () Bool (>= floordiv_1 0))
(assert ge_6)
(define-fun mul_29 () Int (* mul_28 floordiv_1))
(define-fun eq_45 () Bool (= mul_25 mul_29))
(assert eq_45)
(define-fun lt_14 () Bool (< 1 mul_26))
(assert lt_14)
(define-fun lt_15 () Bool (< floordiv_1 mul_26))
(assert lt_15)
(define-fun mul_30 () Int (* floordiv_1 16))
(define-fun lt_16 () Bool (< mul_30 mul_26))
(assert lt_16)
(define-fun mul_31 () Int (* mul_30 3))
(define-fun lt_17 () Bool (< mul_31 mul_26))
(assert lt_17)
(define-fun mul_32 () Int (* mul_31 x_size1))
(define-fun lt_18 () Bool (< mul_32 mul_26))
(assert lt_18)
(define-fun mul_33 () Int (* mul_32 x_size0))
(define-fun eq_46 () Bool (= mul_33 mul_26))
(assert eq_46)
(define-fun eq_47 () Bool (= floordiv x_size1))
(assert eq_47)
(define-fun mul_34 () Int (* mul_24 3))
(define-fun mul_35 () Int (* mul_34 768))
(define-fun eq_48 () Bool (= mul_35 0))
(define-fun not__37 () Bool (not eq_48))
(assert not__37)
(define-fun eq_49 () Bool (= floordiv 0))
(define-fun not__38 () Bool (not eq_49))
(assert not__38)
(define-fun gt_3 () Bool (> floordiv 1))
(assert gt_3)
(define-fun lt_19 () Bool (< 1 mul_23))
(assert lt_19)
(define-fun mul_36 () Int (* mul_34 16))
(define-fun mul_37 () Int (* mul_36 48))
(define-fun eq_50 () Bool (= mul_37 0))
(define-fun not__39 () Bool (not eq_50))
(assert not__39)
(define-fun eq_51 () Bool (= floordiv_1 48))
(assert eq_51)
(define-fun mul_38 () Int (* 3 x_size0))
(define-fun mul_39 () Int (* mul_38 16))
(define-fun mul_40 () Int (* mul_39 floordiv))
(define-fun mul_41 () Int (* mul_40 48))
(define-fun eq_52 () Bool (= mul_41 0))
(define-fun not__40 () Bool (not eq_52))
(assert not__40)
(define-fun eq_53 () Bool (= mul_23 1))
(define-fun not__41 () Bool (not eq_53))
(assert not__41)
(define-fun eq_54 () Bool (= mul_23 0))
(define-fun not__42 () Bool (not eq_54))
(assert not__42)
(define-fun lt_20 () Bool (< mul_23 0))
(define-fun not__43 () Bool (not lt_20))
(assert not__43)
(define-fun gt_4 () Bool (> x_size0 1))
(assert gt_4)
(define-fun lt_21 () Bool (< mul_23 768))
(define-fun not__44 () Bool (not lt_21))
(assert not__44)
(define-fun lt_22 () Bool (< floordiv 2))
(define-fun not__45 () Bool (not lt_22))
(assert not__45)
(define-fun lt_23 () Bool (< 2304 mul_23))
(assert lt_23)
(define-fun mul_42 () Int (* x_size0 16))
(define-fun mul_43 () Int (* mul_42 floordiv))
(define-fun mul_44 () Int (* mul_43 48))
(define-fun eq_55 () Bool (= mul_44 0))
(define-fun not__46 () Bool (not eq_55))
(assert not__46)
(define-fun lt_24 () Bool (< 48 mul_23))
(assert lt_24)
(define-fun mul_45 () Int (* mul_42 48))
(define-fun mul_46 () Int (* mul_45 floordiv))
(define-fun eq_56 () Bool (= mul_46 0))
(define-fun not__47 () Bool (not eq_56))
(assert not__47)
(define-fun eq_57 () Bool (= floordiv floordiv))
(assert eq_57)
(define-fun eq_58 () Bool (= floordiv -1))
(define-fun not__48 () Bool (not eq_58))
(assert not__48)
(define-fun ge_7 () Bool (>= floordiv 0))
(assert ge_7)
(define-fun eq_59 () Bool (= mul_42 -1))
(define-fun not__49 () Bool (not eq_59))
(assert not__49)
(define-fun ge_8 () Bool (>= mul_42 0))
(assert ge_8)
(define-fun eq_60 () Bool (= mul_44 mul_44))
(assert eq_60)
(define-fun mul_47 () Int (* floordiv 2304))
(define-fun eq_61 () Bool (= 48 mul_47))
(define-fun not__50 () Bool (not eq_61))
(assert not__50)
(define-fun lt_25 () Bool (< 1 floordiv))
(assert lt_25)
(define-fun lt_26 () Bool (< floordiv floordiv))
(define-fun not__51 () Bool (not lt_26))
(assert not__51)
(define-fun eq_62 () Bool (= mul_42 1))
(define-fun not__52 () Bool (not eq_62))
(assert not__52)
(define-fun eq_63 () Bool (= mul_23 768))
(define-fun not__53 () Bool (not eq_63))
(assert not__53)
(define-fun eq_64 () Bool (= mul_42 16))
(define-fun not__54 () Bool (not eq_64))
(assert not__54)
(define-fun mul_48 () Int (* 48 floordiv))
(define-fun mul_49 () Int (* mul_48 16))
(define-fun mul_50 () Int (* mul_49 x_size0))
(define-fun mul_51 () Int (* mul_49 sub))
(define-fun add_11 () Int (+ 1 mul_51))
(define-fun mul_52 () Int (* mul_48 15))
(define-fun add_12 () Int (+ add_11 mul_52))
(define-fun sub_4 () Int (- floordiv 1))
(define-fun mul_53 () Int (* 48 sub_4))
(define-fun add_13 () Int (+ add_12 mul_53))
(define-fun add_14 () Int (+ add_13 47))
(define-fun mul_54 () Int (* 4 add_14))
(define-fun eq_65 () Bool (= mul_48 mul_48))
(assert eq_65)
(define-fun eq_66 () Bool (= mul_49 mul_49))
(assert eq_66)
(define-fun eq_67 () Bool (= mul_48 1))
(define-fun not__55 () Bool (not eq_67))
(assert not__55)
(define-fun eq_68 () Bool (= mul_48 0))
(define-fun not__56 () Bool (not eq_68))
(assert not__56)
(define-fun lt_27 () Bool (< mul_48 0))
(define-fun not__57 () Bool (not lt_27))
(assert not__57)
(define-fun lt_28 () Bool (< 1 mul_49))
(assert lt_28)
(define-fun eq_69 () Bool (= x_size0 mul_42))
(define-fun not__58 () Bool (not eq_69))
(assert not__58)
(define-fun eq_70 () Bool (= mul_42 x_size0))
(define-fun not__59 () Bool (not eq_70))
(assert not__59)
(define-fun mod_3 () Int (mod x_size0 mul_42))
(define-fun eq_71 () Bool (= mod_3 0))
(define-fun not__60 () Bool (not eq_71))
(assert not__60)
(define-fun mod_4 () Int (mod mul_42 mul_42))
(define-fun eq_72 () Bool (= mod_4 0))
(assert eq_72)
(define-fun mul_55 () Int (* 16 x_size0))
(define-fun lt_29 () Bool (< mul_49 mul_48))
(define-fun not__61 () Bool (not lt_29))
(assert not__61)
(define-fun gt_5 () Bool (> mul_44 0))
(assert gt_5)
(define-fun mul_56 () Int (* mul_55 floordiv))
(define-fun mul_57 () Int (* mul_56 48))
(define-fun eq_73 () Bool (= mul_57 0))
(define-fun not__62 () Bool (not eq_73))
(assert not__62)
(define-fun eq_74 () Bool (= mul_55 1))
(define-fun not__63 () Bool (not eq_74))
(assert not__63)
(define-fun mul_58 () Int (* mul_48 mul_55))
(define-fun eq_75 () Bool (= mul_42 mul_42))
(assert eq_75)
(define-fun eq_76 () Bool (= mul_46 mul_46))
(assert eq_76)
(define-fun eq_77 () Bool (= 1 mul_47))
(define-fun not__64 () Bool (not eq_77))
(assert not__64)
(define-fun mul_59 () Int (* 48 mul_42))
(define-fun eq_78 () Bool (= mul_59 768))
(define-fun not__65 () Bool (not eq_78))
(assert not__65)
(define-fun mul_60 () Int (* floordiv 48))
(define-fun mul_61 () Int (* mul_60 16))
(define-fun mul_62 () Int (* mul_61 x_size0))
(define-fun mul_63 () Int (* mul_61 sub))
(define-fun add_15 () Int (+ 1 mul_63))
(define-fun mul_64 () Int (* mul_60 15))
(define-fun add_16 () Int (+ add_15 mul_64))
(define-fun mul_65 () Int (* floordiv 47))
(define-fun add_17 () Int (+ add_16 mul_65))
(define-fun add_18 () Int (+ add_17 sub_4))
(define-fun mul_66 () Int (* 4 add_18))
(define-fun eq_79 () Bool (= mul_60 mul_60))
(assert eq_79)
(define-fun eq_80 () Bool (= mul_61 mul_61))
(assert eq_80)
(define-fun eq_81 () Bool (= mul_60 1))
(define-fun not__66 () Bool (not eq_81))
(assert not__66)
(define-fun eq_82 () Bool (= mul_60 0))
(define-fun not__67 () Bool (not eq_82))
(assert not__67)
(define-fun lt_30 () Bool (< mul_60 0))
(define-fun not__68 () Bool (not lt_30))
(assert not__68)
(define-fun lt_31 () Bool (< 1 mul_61))
(assert lt_31)
(define-fun lt_32 () Bool (< mul_61 mul_60))
(define-fun not__69 () Bool (not lt_32))
(assert not__69)
(define-fun gt_6 () Bool (> mul_46 0))
(assert gt_6)
(define-fun mul_67 () Int (* mul_55 48))
(define-fun mul_68 () Int (* mul_67 floordiv))
(define-fun eq_83 () Bool (= mul_68 0))
(define-fun not__70 () Bool (not eq_83))
(assert not__70)
(define-fun mul_69 () Int (* mul_60 mul_55))
(define-fun eq_84 () Bool (= mul_55 mul_55))
(assert eq_84)
(define-fun ge_9 () Bool (>= mul_55 0))
(assert ge_9)
(define-fun mul_70 () Int (* floordiv floordiv))
(define-fun eq_85 () Bool (= mul_55 0))
(define-fun not__71 () Bool (not eq_85))
(assert not__71)
(define-fun mul_71 () Int (* mul_70 mul_55))
(define-fun sub_5 () Int (- mul_55 1))
(define-fun mul_72 () Int (* mul_70 sub_5))
(define-fun add_19 () Int (+ 1 mul_72))
(define-fun mul_73 () Int (* floordiv sub_4))
(define-fun add_20 () Int (+ add_19 mul_73))
(define-fun add_21 () Int (+ add_20 sub_4))
(define-fun mul_74 () Int (* 4 add_21))
(define-fun mul_75 () Int (* mul_56 floordiv))
(define-fun eq_86 () Bool (= mul_75 0))
(define-fun not__72 () Bool (not eq_86))
(assert not__72)
(define-fun eq_87 () Bool (= mul_70 mul_70))
(assert eq_87)
(define-fun mul_76 () Int (* mul_43 floordiv))
(define-fun eq_88 () Bool (= mul_75 mul_76))
(assert eq_88)
(define-fun eq_89 () Bool (= mul_55 x_size0))
(define-fun not__73 () Bool (not eq_89))
(assert not__73)
(define-fun eq_90 () Bool (= x_size0 mul_55))
(define-fun not__74 () Bool (not eq_90))
(assert not__74)
(define-fun mod_5 () Int (mod mul_55 x_size0))
(define-fun eq_91 () Bool (= mod_5 0))
(assert eq_91)
(define-fun floordiv_2 () Int (div mul_55 x_size0))
(define-fun mul_77 () Int (* mul_70 floordiv_2))
(define-fun mul_78 () Int (* x_size0 floordiv_2))
(define-fun mul_79 () Int (* mul_78 floordiv))
(define-fun mul_80 () Int (* mul_79 floordiv))
(define-fun eq_92 () Bool (= mul_80 0))
(define-fun not__75 () Bool (not eq_92))
(assert not__75)
(define-fun eq_93 () Bool (= floordiv_2 1))
(define-fun not__76 () Bool (not eq_93))
(assert not__76)
(define-fun eq_94 () Bool (= mul_77 mul_77))
(assert eq_94)
(define-fun mul_81 () Int (* mul_77 x_size0))
(define-fun eq_95 () Bool (= mul_70 1))
(define-fun not__77 () Bool (not eq_95))
(assert not__77)
(define-fun eq_96 () Bool (= mul_70 0))
(define-fun not__78 () Bool (not eq_96))
(assert not__78)
(define-fun eq_97 () Bool (= floordiv_2 0))
(define-fun not__79 () Bool (not eq_97))
(assert not__79)
(define-fun lt_33 () Bool (< mul_70 0))
(define-fun not__80 () Bool (not lt_33))
(assert not__80)
(define-fun gt_7 () Bool (> floordiv_2 1))
(assert gt_7)
(define-fun lt_34 () Bool (< 1 mul_77))
(assert lt_34)
(define-fun eq_98 () Bool (= floordiv_2 16))
(assert eq_98)
(define-fun lt_35 () Bool (< floordiv 0))
(define-fun not__81 () Bool (not lt_35))
(assert not__81)
(define-fun lt_36 () Bool (< floordiv_2 0))
(define-fun not__82 () Bool (not lt_36))
(assert not__82)
(define-fun eq_99 () Bool (= floordiv_2 floordiv_2))
(assert eq_99)
(define-fun lt_37 () Bool (< floordiv mul_70))
(assert lt_37)
(define-fun eq_100 () Bool (= mul_77 0))
(define-fun not__83 () Bool (not eq_100))
(assert not__83)
(define-fun lt_38 () Bool (< mul_70 mul_77))
(assert lt_38)
(define-fun ge_10 () Bool (>= floordiv_2 0))
(assert ge_10)
(define-fun mul_82 () Int (* mul_77 sub))
(define-fun add_22 () Int (+ 1 mul_82))
(define-fun sub_6 () Int (- floordiv_2 1))
(define-fun mul_83 () Int (* mul_70 sub_6))
(define-fun add_23 () Int (+ add_22 mul_83))
(define-fun add_24 () Int (+ add_23 mul_73))
(define-fun add_25 () Int (+ add_24 sub_4))
(define-fun mul_84 () Int (* 4 add_25))
(define-fun eq_101 () Bool (= floordiv 197))
(assert eq_101)
(define-fun mul_85 () Int (* floordiv floordiv_2))
(define-fun mul_86 () Int (* mul_85 x_size0))
(define-fun mul_87 () Int (* mul_85 sub))
(define-fun add_26 () Int (+ 1 mul_87))
(define-fun mul_88 () Int (* floordiv sub_6))
(define-fun add_27 () Int (+ add_26 mul_88))
(define-fun add_28 () Int (+ add_27 sub_4))
(define-fun mul_89 () Int (* 4 add_28))
(define-fun eq_102 () Bool (= mul_79 0))
(define-fun not__84 () Bool (not eq_102))
(assert not__84)
(define-fun eq_103 () Bool (= mul_85 mul_85))
(assert eq_103)
(define-fun lt_39 () Bool (< 1 mul_85))
(assert lt_39)
(define-fun eq_104 () Bool (= floordiv_2 -1))
(define-fun not__85 () Bool (not eq_104))
(assert not__85)
(define-fun lt_40 () Bool (< floordiv_2 2))
(define-fun not__86 () Bool (not lt_40))
(assert not__86)
(define-fun lt_41 () Bool (< floordiv mul_85))
(assert lt_41)
(define-fun lt_42 () Bool (< 0 mul_85))
(assert lt_42)
(define-fun eq_105 () Bool (= mul_80 mul_80))
(assert eq_105)
(define-fun eq_106 () Bool (= mul_78 -1))
(define-fun not__87 () Bool (not eq_106))
(assert not__87)
(define-fun ge_11 () Bool (>= mul_78 0))
(assert ge_11)
(define-fun lt_43 () Bool (< 1 mul_81))
(assert lt_43)
(define-fun lt_44 () Bool (< floordiv mul_81))
(assert lt_44)
(define-fun lt_45 () Bool (< mul_70 mul_81))
(assert lt_45)
(define-fun mul_90 () Int (* mul_70 mul_78))
(define-fun eq_107 () Bool (= mul_90 mul_81))
(assert eq_107)
(define-fun eq_108 () Bool (= x_size0 mul_78))
(define-fun not__88 () Bool (not eq_108))
(assert not__88)
(define-fun eq_109 () Bool (= mul_78 x_size0))
(define-fun not__89 () Bool (not eq_109))
(assert not__89)
(define-fun mod_6 () Int (mod x_size0 mul_78))
(define-fun eq_110 () Bool (= mod_6 0))
(define-fun not__90 () Bool (not eq_110))
(assert not__90)
(define-fun mod_7 () Int (mod mul_78 mul_78))
(define-fun eq_111 () Bool (= mod_7 0))
(assert eq_111)
(define-fun mul_91 () Int (* floordiv_2 x_size0))
(define-fun lt_46 () Bool (< mul_77 mul_70))
(define-fun not__91 () Bool (not lt_46))
(assert not__91)
(define-fun gt_8 () Bool (> mul_80 0))
(assert gt_8)
(define-fun mul_92 () Int (* mul_91 floordiv))
(define-fun mul_93 () Int (* mul_92 floordiv))
(define-fun eq_112 () Bool (= mul_93 0))
(define-fun not__92 () Bool (not eq_112))
(assert not__92)
(define-fun eq_113 () Bool (= mul_91 1))
(define-fun not__93 () Bool (not eq_113))
(assert not__93)
(define-fun mul_94 () Int (* mul_70 mul_91))
(define-fun eq_114 () Bool (= mul_78 mul_78))
(assert eq_114)
(define-fun mul_95 () Int (* mul_79 48))
(define-fun eq_115 () Bool (= mul_95 0))
(define-fun not__94 () Bool (not eq_115))
(assert not__94)
(define-fun mul_96 () Int (* 48 floordiv_2))
(define-fun eq_116 () Bool (= 2304 mul_96))
(define-fun not__95 () Bool (not eq_116))
(assert not__95)
(define-fun lt_47 () Bool (< 1 mul_96))
(assert lt_47)
(define-fun eq_117 () Bool (= mul_95 mul_95))
(assert eq_117)
(define-fun eq_118 () Bool (= mul_78 1))
(define-fun not__96 () Bool (not eq_118))
(assert not__96)
(define-fun mul_97 () Int (* floordiv_2 48))
(define-fun eq_119 () Bool (= mul_23 mul_97))
(define-fun not__97 () Bool (not eq_119))
(assert not__97)
(define-fun lt_48 () Bool (< 1 floordiv_2))
(assert lt_48)
(define-fun eq_120 () Bool (= mul_78 floordiv_2))
(define-fun not__98 () Bool (not eq_120))
(assert not__98)
(define-fun mul_98 () Int (* mul_48 floordiv_2))
(define-fun mul_99 () Int (* mul_98 x_size0))
(define-fun mul_100 () Int (* mul_98 sub))
(define-fun add_29 () Int (+ 1 mul_100))
(define-fun mul_101 () Int (* mul_48 sub_6))
(define-fun add_30 () Int (+ add_29 mul_101))
(define-fun add_31 () Int (+ add_30 mul_53))
(define-fun add_32 () Int (+ add_31 47))
(define-fun mul_102 () Int (* 4 add_32))
(define-fun eq_121 () Bool (= mul_98 mul_98))
(assert eq_121)
(define-fun lt_49 () Bool (< 1 mul_98))
(assert lt_49)
(define-fun lt_50 () Bool (< mul_98 mul_48))
(define-fun not__99 () Bool (not lt_50))
(assert not__99)
(define-fun gt_9 () Bool (> mul_95 0))
(assert gt_9)
(define-fun mul_103 () Int (* mul_92 48))
(define-fun eq_122 () Bool (= mul_103 0))
(define-fun not__100 () Bool (not eq_122))
(assert not__100)
(define-fun mul_104 () Int (* mul_48 mul_91))
(define-fun eq_123 () Bool (= mul_91 mul_91))
(assert eq_123)
(define-fun ge_12 () Bool (>= mul_91 0))
(assert ge_12)
(define-fun eq_124 () Bool (= mul_91 0))
(define-fun not__101 () Bool (not eq_124))
(assert not__101)
(define-fun sub_7 () Int (- mul_91 1))
(define-fun mul_105 () Int (* mul_48 sub_7))
(define-fun add_33 () Int (+ 1 mul_105))
(define-fun add_34 () Int (+ add_33 mul_53))
(define-fun add_35 () Int (+ add_34 47))
(define-fun mul_106 () Int (* 4 add_35))
(define-fun eq_125 () Bool (= mul_103 mul_95))
(assert eq_125)
(define-fun eq_126 () Bool (= mul_91 x_size0))
(define-fun not__102 () Bool (not eq_126))
(assert not__102)
(define-fun eq_127 () Bool (= x_size0 mul_91))
(define-fun not__103 () Bool (not eq_127))
(assert not__103)
(define-fun mod_8 () Int (mod mul_91 x_size0))
(define-fun eq_128 () Bool (= mod_8 0))
(assert eq_128)
(define-fun floordiv_3 () Int (div mul_91 x_size0))
(define-fun mul_107 () Int (* mul_48 floordiv_3))
(define-fun mul_108 () Int (* x_size0 floordiv_3))
(define-fun mul_109 () Int (* mul_108 floordiv))
(define-fun mul_110 () Int (* mul_109 48))
(define-fun eq_129 () Bool (= mul_110 0))
(define-fun not__104 () Bool (not eq_129))
(assert not__104)
(define-fun eq_130 () Bool (= floordiv_3 1))
(define-fun not__105 () Bool (not eq_130))
(assert not__105)
(define-fun eq_131 () Bool (= mul_107 mul_107))
(assert eq_131)
(define-fun mul_111 () Int (* mul_107 x_size0))
(define-fun eq_132 () Bool (= floordiv_3 0))
(define-fun not__106 () Bool (not eq_132))
(assert not__106)
(define-fun gt_10 () Bool (> floordiv_3 1))
(assert gt_10)
(define-fun lt_51 () Bool (< 1 mul_107))
(assert lt_51)
(define-fun eq_133 () Bool (= floordiv_2 floordiv_3))
(assert eq_133)
(define-fun mul_112 () Int (* mul_24 floordiv_3))
(define-fun mul_113 () Int (* mul_112 48))
(define-fun eq_134 () Bool (= mul_113 0))
(define-fun not__107 () Bool (not eq_134))
(assert not__107)
(define-fun eq_135 () Bool (= mul_48 48))
(define-fun not__108 () Bool (not eq_135))
(assert not__108)
(define-fun lt_52 () Bool (< 48 mul_107))
(assert lt_52)
(define-fun lt_53 () Bool (< floordiv_3 2))
(define-fun not__109 () Bool (not lt_53))
(assert not__109)
(define-fun lt_54 () Bool (< mul_48 48))
(define-fun not__110 () Bool (not lt_54))
(assert not__110)
(define-fun lt_55 () Bool (< mul_48 mul_107))
(assert lt_55)
(define-fun lt_56 () Bool (< 1 mul_48))
(assert lt_56)
(define-fun eq_136 () Bool (= mul_113 mul_5))
(assert eq_136)
(define-fun lt_57 () Bool (< x_size2 48))
(define-fun not__111 () Bool (not lt_57))
(assert not__111)
(define-fun eq_137 () Bool (= x_size2 48))
(define-fun not__112 () Bool (not eq_137))
(assert not__112)
(define-fun ge_13 () Bool (>= floordiv_3 0))
(assert ge_13)
(define-fun mul_114 () Int (* 48 floordiv_3))
(define-fun mul_115 () Int (* mul_114 floordiv))
(define-fun mul_116 () Int (* mul_115 x_size0))
(define-fun mul_117 () Int (* mul_115 sub))
(define-fun add_36 () Int (+ 1 mul_117))
(define-fun mul_118 () Int (* mul_114 sub_4))
(define-fun add_37 () Int (+ add_36 mul_118))
(define-fun sub_8 () Int (- floordiv_3 1))
(define-fun mul_119 () Int (* 48 sub_8))
(define-fun add_38 () Int (+ add_37 mul_119))
(define-fun add_39 () Int (+ add_38 47))
(define-fun mul_120 () Int (* 4 add_39))
(define-fun eq_138 () Bool (= mul_114 mul_114))
(assert eq_138)
(define-fun eq_139 () Bool (= mul_115 mul_115))
(assert eq_139)
(define-fun eq_140 () Bool (= mul_114 1))
(define-fun not__113 () Bool (not eq_140))
(assert not__113)
(define-fun eq_141 () Bool (= mul_114 0))
(define-fun not__114 () Bool (not eq_141))
(assert not__114)
(define-fun lt_58 () Bool (< mul_114 0))
(define-fun not__115 () Bool (not lt_58))
(assert not__115)
(define-fun lt_59 () Bool (< 1 mul_115))
(assert lt_59)
(define-fun eq_142 () Bool (= floordiv_3 x_size2))
(define-fun not__116 () Bool (not eq_142))
(assert not__116)
(define-fun eq_143 () Bool (= x_size2 floordiv_3))
(define-fun not__117 () Bool (not eq_143))
(assert not__117)
(define-fun mod_9 () Int (mod floordiv_3 x_size2))
(define-fun eq_144 () Bool (= mod_9 0))
(define-fun not__118 () Bool (not eq_144))
(assert not__118)
(define-fun mul_121 () Int (* floordiv_3 48))
(define-fun mod_10 () Int (mod mul_121 x_size2))
(define-fun eq_145 () Bool (= mod_10 0))
(assert eq_145)
(define-fun gt_11 () Bool (> mul_113 0))
(assert gt_11)
(define-fun mul_122 () Int (* mul_24 mul_114))
(define-fun eq_146 () Bool (= mul_122 0))
(define-fun not__119 () Bool (not eq_146))
(assert not__119)
(define-fun eq_147 () Bool (= mul_121 x_size2))
(assert eq_147)
(define-fun eq_148 () Bool (= mul_24 -1))
(define-fun not__120 () Bool (not eq_148))
(assert not__120)
(define-fun ge_14 () Bool (>= mul_24 0))
(assert ge_14)
(define-fun eq_149 () Bool (= mul_114 -1))
(define-fun not__121 () Bool (not eq_149))
(assert not__121)
(define-fun ge_15 () Bool (>= mul_114 0))
(assert ge_15)
(define-fun eq_150 () Bool (= mul_122 mul_122))
(assert eq_150)
(define-fun eq_151 () Bool (= x_size0 mul_24))
(define-fun not__122 () Bool (not eq_151))
(assert not__122)
(define-fun eq_152 () Bool (= mul_24 x_size0))
(define-fun not__123 () Bool (not eq_152))
(assert not__123)
(define-fun mod_11 () Int (mod x_size0 mul_24))
(define-fun eq_153 () Bool (= mod_11 0))
(define-fun not__124 () Bool (not eq_153))
(assert not__124)
(define-fun mod_12 () Int (mod mul_24 mul_24))
(define-fun eq_154 () Bool (= mod_12 0))
(assert eq_154)
(define-fun mul_123 () Int (* floordiv x_size0))
(define-fun lt_60 () Bool (< mul_115 mul_114))
(define-fun not__125 () Bool (not lt_60))
(assert not__125)
(define-fun gt_12 () Bool (> mul_122 0))
(assert gt_12)
(define-fun mul_124 () Int (* mul_123 mul_114))
(define-fun eq_155 () Bool (= mul_124 0))
(define-fun not__126 () Bool (not eq_155))
(assert not__126)
(define-fun eq_156 () Bool (= mul_123 1))
(define-fun not__127 () Bool (not eq_156))
(assert not__127)
(define-fun mul_125 () Int (* mul_114 mul_123))
(define-fun eq_157 () Bool (= mul_24 mul_24))
(assert eq_157)
(define-fun eq_158 () Bool (= mul_114 768))
(assert eq_158)
(define-fun ge_16 () Bool (>= mul_123 0))
(assert ge_16)
(define-fun eq_159 () Bool (= mul_123 0))
(define-fun not__128 () Bool (not eq_159))
(assert not__128)
(define-fun mul_126 () Int (* 768 mul_123))
(define-fun sub_9 () Int (- mul_123 1))
(define-fun mul_127 () Int (* 768 sub_9))
(define-fun add_40 () Int (+ 1 mul_127))
(define-fun add_41 () Int (+ add_40 767))
(define-fun mul_128 () Int (* 4 add_41))
(define-fun mul_129 () Int (* mul_123 768))
(define-fun eq_160 () Bool (= mul_129 0))
(define-fun not__129 () Bool (not eq_160))
(assert not__129)
(define-fun lt_61 () Bool (< mul_123 0))
(define-fun not__130 () Bool (not lt_61))
(assert not__130)
(define-fun eq_161 () Bool (= mul_123 mul_123))
(assert eq_161)
(define-fun lt_62 () Bool (< mul_123 2))
(define-fun not__131 () Bool (not lt_62))
(assert not__131)
(define-fun mul_130 () Int (* mul_24 768))
(define-fun eq_162 () Bool (= mul_129 mul_130))
(assert eq_162)
(define-fun eq_163 () Bool (= mul_123 x_size0))
(define-fun not__132 () Bool (not eq_163))
(assert not__132)
(define-fun eq_164 () Bool (= x_size0 mul_123))
(define-fun not__133 () Bool (not eq_164))
(assert not__133)
(define-fun mod_13 () Int (mod mul_123 x_size0))
(define-fun eq_165 () Bool (= mod_13 0))
(assert eq_165)
(define-fun floordiv_4 () Int (div mul_123 x_size0))
(define-fun mul_131 () Int (* 768 floordiv_4))
(define-fun mul_132 () Int (* x_size0 floordiv_4))
(define-fun mul_133 () Int (* mul_132 768))
(define-fun eq_166 () Bool (= mul_133 0))
(define-fun not__134 () Bool (not eq_166))
(assert not__134)
(define-fun eq_167 () Bool (= floordiv_4 1))
(define-fun not__135 () Bool (not eq_167))
(assert not__135)
(define-fun eq_168 () Bool (= mul_131 mul_131))
(assert eq_168)
(define-fun mul_134 () Int (* mul_131 x_size0))
(define-fun eq_169 () Bool (= floordiv floordiv_4))
(assert eq_169)
(define-fun eq_170 () Bool (= x_size1 floordiv_4))
(assert eq_170)
(define-fun eq_171 () Bool (= floordiv_4 x_size1))
(assert eq_171)
(define-fun mul_135 () Int (* 3072 mul_12))
(define-fun mul_136 () Int (* 3072 sub_3))
(define-fun add_42 () Int (+ 1 mul_136))
(define-fun add_43 () Int (+ add_42 3071))
(define-fun mul_137 () Int (* 4 add_43))
(define-fun mul_138 () Int (* mul_12 3072))
(define-fun eq_172 () Bool (= mul_138 0))
(define-fun not__136 () Bool (not eq_172))
(assert not__136)
(define-fun lt_63 () Bool (< mul_12 0))
(define-fun not__137 () Bool (not lt_63))
(assert not__137)
(define-fun eq_173 () Bool (= mul_12 mul_12))
(assert eq_173)
(define-fun lt_64 () Bool (< mul_12 2))
(define-fun not__138 () Bool (not lt_64))
(assert not__138)
(define-fun mul_139 () Int (* mul_4 3072))
(define-fun eq_174 () Bool (= mul_138 mul_139))
(assert eq_174)
(define-fun mul_140 () Int (* 3072 floordiv))
(define-fun mul_141 () Int (* mul_24 3072))
(define-fun eq_175 () Bool (= mul_141 0))
(define-fun not__139 () Bool (not eq_175))
(assert not__139)
(define-fun eq_176 () Bool (= mul_140 mul_140))
(assert eq_176)
(define-fun mul_142 () Int (* mul_140 x_size0))
(define-fun eq_177 () Bool (= mul_140 0))
(define-fun not__140 () Bool (not eq_177))
(assert not__140)
(define-fun gt_13 () Bool (> mul_140 3072))
(assert gt_13)
(define-fun mul_143 () Int (* mul_140 sub))
(define-fun add_44 () Int (+ 1 mul_143))
(define-fun mul_144 () Int (* 3072 sub_4))
(define-fun add_45 () Int (+ add_44 mul_144))
(define-fun add_46 () Int (+ add_45 3071))
(define-fun mul_145 () Int (* 4 add_46))
(define-fun eq_178 () Bool (= mul_141 mul_141))
(assert eq_178)
(define-fun lt_65 () Bool (< mul_140 3072))
(define-fun not__141 () Bool (not lt_65))
(assert not__141)
(define-fun gt_14 () Bool (> mul_141 0))
(assert gt_14)
(define-fun mul_146 () Int (* mul_123 3072))
(define-fun eq_179 () Bool (= mul_146 0))
(define-fun not__142 () Bool (not eq_179))
(assert not__142)
(define-fun mul_147 () Int (* 3072 mul_123))
(define-fun lt_66 () Bool (< 1 mul_50))
(assert lt_66)
(define-fun lt_67 () Bool (< 48 mul_50))
(assert lt_67)
(define-fun lt_68 () Bool (< mul_48 mul_50))
(assert lt_68)
(define-fun mul_148 () Int (* mul_48 mul_42))
(define-fun eq_180 () Bool (= mul_148 mul_50))
(assert eq_180)
(define-fun lt_69 () Bool (< 1 mul_62))
(assert lt_69)
(define-fun lt_70 () Bool (< floordiv mul_62))
(assert lt_70)
(define-fun lt_71 () Bool (< mul_60 mul_62))
(assert lt_71)
(define-fun mul_149 () Int (* mul_60 mul_42))
(define-fun eq_181 () Bool (= mul_149 mul_62))
(assert eq_181)
(define-fun lt_72 () Bool (< 1 mul_99))
(assert lt_72)
(define-fun lt_73 () Bool (< 48 mul_99))
(assert lt_73)
(define-fun lt_74 () Bool (< mul_48 mul_99))
(assert lt_74)
(define-fun mul_150 () Int (* mul_48 mul_78))
(define-fun eq_182 () Bool (= mul_150 mul_99))
(assert eq_182)
(define-fun lt_75 () Bool (< 1 mul_116))
(assert lt_75)
(define-fun lt_76 () Bool (< x_size2 mul_116))
(assert lt_76)
(define-fun lt_77 () Bool (< mul_6 mul_116))
(assert lt_77)
(define-fun eq_183 () Bool (= mul_7 mul_116))
(assert eq_183)
(define-fun eq_184 () Bool (= mul_11 0))
(define-fun not__143 () Bool (not eq_184))
(assert not__143)
(define-fun eq_185 () Bool (= mul_10 0))
(define-fun not__144 () Bool (not eq_185))
(assert not__144)
(define-fun output0_size0 () Int x_size0)
(define-fun output0_size1 () Int x_size1)
(define-fun output0_size2 () Int x_size2)
(define-fun output0_stride0 () Int mul_6)
(define-fun output0_stride1 () Int x_size2)
(define-fun output0_stride2 () Int 1)
(define-fun output0_storage_offset () Int 0)
(check-sat)
(get-model)
